15 7 3 12 16 10 17 13 4 2 1 19 9 5 8 11 18 0 14 6  
15 7 3 12 13 17 4 2 1 19 8 10 9 5 16 11 18 0 14 6  
15 7 3 12 16 10 17 13 4 8 1 19 9 2 11 5 18 0 14 6  
15 7 3 12 16 10 17 13 4 2 1 19 9 8 5 0 14 6 18 11  
15 7 3 12 16 10 17 13 4 2 1 19 8 9 5 11 18 0 14 6  
15 7 3 16 17 10 12 13 4 2 1 19 9 5 8 0 14 18 11 6  
15 7 3 12 16 17 0 13 4 2 1 5 10 9 19 11 18 8 14 6  
15 7 3 12 17 13 4 2 1 19 8 10 9 5 16 11 18 0 14 6  
15 7 3 12 16 10 17 13 4 8 1 19 9 2 5 11 18 0 14 6  
15 7 3 16 17 10 12 2 1 19 8 13 4 9 5 11 18 0 14 6  
15 7 3 12 17 13 4 2 1 19 8 10 9 5 16 11 18 0 14 6  
15 7 3 12 16 10 17 13 4 8 1 19 9 2 5 0 14 18 11 6  
15 7 3 12 16 17 0 13 4 2 1 19 5 9 10 11 18 8 14 6  
15 7 3 16 17 10 12 13 4 2 1 19 8 9 5 11 18 0 14 6  
15 7 3 12 16 10 17 13 4 2 1 19 8 11 5 9 18 0 14 6  
15 7 3 12 16 10 17 13 4 2 1 19 9 5 8 11 18 0 14 6  
15 7 3 12 16 10 17 13 4 8 2 1 19 9 5 0 14 18 11 6  
15 7 3 12 16 10 17 13 4 2 1 19 8 9 5 11 18 0 14 6  
15 7 3 12 17 13 4 2 1 19 8 10 5 9 16 14 18 0 11 6  
15 7 3 12 17 13 4 2 1 19 8 10 5 9 16 14 18 0 11 6  
15 7 3 16 12 10 4 2 1 19 8 17 13 11 0 18 9 5 14 6  
15 7 3 16 17 10 12 13 4 1 2 19 8 9 5 11 18 0 14 6  
15 7 3 16 12 10 17 13 4 8 1 19 9 2 5 11 18 0 14 6  
15 7 3 16 12 10 17 4 2 1 19 8 13 9 11 5 18 0 14 6  
15 7 3 12 17 13 4 2 16 1 19 9 8 10 5 14 18 0 11 6  
15 7 3 16 17 10 12 13 4 1 2 19 8 9 5 11 18 0 14 6  
15 7 3 16 17 10 12 13 4 2 8 1 19 9 5 0 18 14 11 6  
15 7 3 12 16 9 17 13 4 2 1 19 8 11 10 5 18 0 14 6  
15 7 3 12 16 10 17 13 4 8 1 19 9 2 5 11 18 0 14 6  
15 7 3 12 9 16 17 13 4 2 1 19 8 11 10 5 18 0 14 6  
15 7 3 12 16 10 17 13 4 2 1 19 9 5 8 11 18 0 14 6  
15 7 3 12 9 16 17 13 4 2 1 19 8 11 10 5 18 0 14 6  
15 7 3 12 16 10 17 13 4 2 1 19 9 5 8 11 18 0 14 6  
15 7 3 16 17 10 12 13 4 1 2 19 8 9 5 11 18 0 14 6  
15 7 3 12 16 10 17 13 4 2 1 19 9 5 8 11 18 0 14 6  
